1134.0 13828.0 3739.0 
1134.0 13828.0 3739.0 
1138.0 13574.0 3363.0 
1161.0 13229.0 3249.0 
1134.0 13744.0 3744.0 
1161.0 13399.0 3197.0 
1249.0 13156.0 2689.0 
1166.0 13237.0 3074.0 
1127.0 14338.0 3814.0 
1127.0 14032.0 3868.0 
1216.0 13137.0 2785.0 
1137.0 13728.0 3783.0 
1163.0 13296.0 2962.0 
1133.0 14246.0 3815.0 
1145.0 13361.0 3201.0 
1198.0 13149.0 2719.0 
1137.0 13787.0 3694.0 
1198.0 13142.0 2818.0 
1134.0 13828.0 3739.0 
1166.0 13245.0 2939.0 
1163.0 13263.0 3152.0 
1179.0 13188.0 2901.0 
1179.0 13170.0 3074.0 
1127.0 14306.0 3863.0 
